NAME : rnd2_20.tsp
TYPE : TSP
DIMENSION : 20
EDGE_WEIGHT_TYPE : EUC_2D
NODE_COORD_SECTION
1 697 573
2 740 641
3 20 517
4 696 700
5 931 712
6 674 478
7 820 835
8 894 378
9 635 718
10 67 299
11 303 118
12 904 621
13 275 489
14 489 291
15 775 231
16 23 61
17 33 622
18 407 620
19 608 781
20 497 47
